 1  2  3  4  5  6  7  8  9
 5 10  5 20 10  5 10 20 10
10  1  1  1 10  1  1  1 10
 1  1  1  1  1  1  1  1  1
123456 456789 789012 100000 200000 300000 384382 329482 838342
1000000 2000000 3000000 4000000 5000000 6000000 7000000 8000000 9000000